5 5
6 3 5 20 3 10 4 11 1 3 15 2 1 16 2 9 2 5 2 3 4 4 1 12 5 7 3 18 2 12 3 1 14 5 18 2 17
5 2 3 8 4 10 2 3 11 2 17 1 5 17 1 5 10 1 2 6
7 5 2 13 1 15 3 6 4 5 5 4 2 3 20 1 7 5 5 7 3 20 1 19 4 2 2 11 3 1 4 5 11 2 5 2 4 16 1 7 4 3 18 2 9 1 12 4 12 1 2 16
6 1 5 15 4 1 5 3 20 5 20 4 15 5 4 2 1 19 5 5 3 17 2 19 5 2 9 1 10 3 17 4 6 5 6 3 3 4 1 4 2 6 4 4 14 3 14 1 13 2 13
7 1 4 17 4 2 9 4 7 1 6 5 18 1 1 15 2 1 15 5 18 4 5 8 3 16 1 7 2 20 4 2 6 1 6 4 4 3 19 1 3 18